
  12    4
  10   10   10   10

   0   0   0   0   0   4 2 3 4 6 
   6  10  10  10  10   3 11 8 7 
   5  10  10  10  10   3 11 8 7 
   5  10  10  10  10   1 5 
   4  10  10  10  10   3 11 10 9 
   5  10  10  10  10   2 9 7 
   4  10  10  10  10   1 10 
   6  10  10  10  10   1 9 
   1  10  10  10  10   1 12
   2  10  10  10  10   1 12
   7  10  10  10  10   1 12
   0   0   0   0   0   0 
